c FILE: i080-202

c SOURCE: From steinlib

c DESCRIPTION: Steinlib instance with 80 nodes and 120 edges.

p edge 80 120
e 1 10
e 1 16
e 1 17
e 1 37
e 1 46
e 1 63
e 1 64
e 1 78
e 2 11
e 2 18
e 2 54
e 2 63
e 3 11
e 3 43
e 3 47
e 4 43
e 4 45
e 5 71
e 6 11
e 6 41
e 6 61
e 6 62
e 6 72
e 7 9
e 7 12
e 7 37
e 7 51
e 7 79
e 8 78
e 9 43
e 9 56
e 10 23
e 10 43
e 10 48
e 10 53
e 10 79
e 11 76
e 11 79
e 12 57
e 12 62
e 12 67
e 13 39
e 13 64
e 13 78
e 14 41
e 14 49
e 15 35
e 15 54
e 17 21
e 17 80
e 18 48
e 18 55
e 18 59
e 19 35
e 19 57
e 20 80
e 21 46
e 21 71
e 21 76
e 22 29
e 22 38
e 22 39
e 23 37
e 24 26
e 24 80
e 25 31
e 25 44
e 26 28
e 26 56
e 27 41
e 28 64
e 28 75
e 28 80
e 29 44
e 29 55
e 29 71
e 30 44
e 30 64
e 31 50
e 31 57
e 31 75
e 32 72
e 33 80
e 34 65
e 35 70
e 36 46
e 36 72
e 37 58
e 37 71
e 38 53
e 38 71
e 38 74
e 38 78
e 39 47
e 39 60
e 40 52
e 40 57
e 40 61
e 40 74
e 41 68
e 42 46
e 42 66
e 44 52
e 44 65
e 47 52
e 47 54
e 47 65
e 48 52
e 52 63
e 52 80
e 53 69
e 53 70
e 55 57
e 55 77
e 56 73
e 56 78
e 61 69
e 63 68
e 66 78
e 70 77
